Route 1: 40 2 15 43 41 22 21 26 12 28
Route 2: 50 1 3 33 9 20 30 32 10 31
Route 3: 5 17 45 46 8 48 47 36 19 7
Route 4: 24 23 39 4 25
Route 5: 49 11 35 34 29 27
Route 6: 18 16 44 38 14 42 13 6 37
Vehicles: 6
Distance: 763.31
